259 860
68 563
773 100
107 702
481 1
66 428
250 449
665 599
269 298
31 455
96 415
197 825
862 227
27 57
163 707
39 303
587 795
132 705
442 369
839 769
335 355
805 785
196 286
895 429
84 89
630 741
111 449
583 697
809 313
359 66
113 853
647 46
137 406
855 404
310 523
716 351
842 95
650 632
521 227
40 661
767 167
13 436
361 749
66 872
475 466
883 668
652 170
693 373
172 748
798 876
52 640
454 165
526 568
159 509
94 743
489 115
887 260
725 492
589 18
453 695
698 448
280 627
3 250
616 154
31 722
582 54
151 174
791 899
777 276
539 867
789 54
147 495
534 610
510 448
154 326
